SAT
-57 39 1 -83 -81 5 30 68 -37 -59 85 -89 99 50 26 -63 94 9 23 61 87 38 -93 -51 19 8 55 -75 -88 -54 -97 4 18 71 41 45 -42 -73 58 76 -29 11 31 -34 60 96 -13 -56 -32 -3 -64 20 -52 6 -98 7 -84 24 -48 -74 -28 16 36 65 -22 -21 -15 44 80 47 27 -72 25 -40 70 92 100 53 67 -12 -17 -95 -33 46 -82 -2 90 43 35 -79 -49 10 86 91 14 -78 66 -77 62 -69 0
